27 69 90 63 64 49 36 47 46 45 17 61 91 100 42 43 41 22 74 58 53 
95 99 59 98 85 44 14 38 86 16 84 83 8 18 40 21 73 72 75 56 23 67 39 4 54 80 68 78 34 35 32 10 48 89 

28 12 76 77 3 79 29 24 25 55 26 
52 7 82 19 11 62 88 31 70 30 20 66 65 71 9 51 81 33 50 1 
94 13 2 57 15 87 97 92 37 93 5 60 96 6 
